NAME : zqloutput/eax-hard-simple-rescaleandround/50-11.tsp
TYPE : TSP
DIMENSION : 50
EDGE_WEIGHT_TYPE : EUC_2D
NODE_COORD_SECTION
1 84660 957317
2 339456 77485
3 678619 863471
4 18459 567514
5 725927 37789
6 311627 882689
7 870376 915653
8 722374 217030
9 720073 680915
10 27139 486976
11 497040 319276
12 984806 324049
13 11857 919218
14 450416 83883
15 551094 469798
16 587023 89532
17 363618 622760
18 404430 514417
19 127960 786114
20 596094 896907
21 257429 651209
22 886547 606233
23 811069 767579
24 761056 614104
25 659406 324699
26 564410 445602
27 380274 731220
28 395882 488358
29 965888 551755
30 931003 95251
31 487493 823526
32 840429 105467
33 534453 346252
34 908264 797880
35 736594 392927
36 498626 708422
37 240808 676941
38 855669 497202
39 15082 121394
40 207261 37440
41 388800 518941
42 174770 540810
43 982661 380835
44 810131 645334
45 224397 707836
46 811060 105186
47 137578 414921
48 121582 580455
49 988345 790638
50 701740 797634
EOF
